c generated by sgen
p cnf 129 268
-2 -3 -4 0
-1 -3 -4 0
-1 -2 -4 0
-1 -2 -3 0
-6 -7 -8 0
-5 -7 -8 0
-5 -6 -8 0
-5 -6 -7 0
-10 -11 -12 0
-9 -11 -12 0
-9 -10 -12 0
-9 -10 -11 0
-14 -15 -16 0
-13 -15 -16 0
-13 -14 -16 0
-13 -14 -15 0
-18 -19 -20 0
-17 -19 -20 0
-17 -18 -20 0
-17 -18 -19 0
-22 -23 -24 0
-21 -23 -24 0
-21 -22 -24 0
-21 -22 -23 0
-26 -27 -28 0
-25 -27 -28 0
-25 -26 -28 0
-25 -26 -27 0
-30 -31 -32 0
-29 -31 -32 0
-29 -30 -32 0
-29 -30 -31 0
-34 -35 -36 0
-33 -35 -36 0
-33 -34 -36 0
-33 -34 -35 0
-38 -39 -40 0
-37 -39 -40 0
-37 -38 -40 0
-37 -38 -39 0
-42 -43 -44 0
-41 -43 -44 0
-41 -42 -44 0
-41 -42 -43 0
-46 -47 -48 0
-45 -47 -48 0
-45 -46 -48 0
-45 -46 -47 0
-50 -51 -52 0
-49 -51 -52 0
-49 -50 -52 0
-49 -50 -51 0
-54 -55 -56 0
-53 -55 -56 0
-53 -54 -56 0
-53 -54 -55 0
-58 -59 -60 0
-57 -59 -60 0
-57 -58 -60 0
-57 -58 -59 0
-62 -63 -64 0
-61 -63 -64 0
-61 -62 -64 0
-61 -62 -63 0
-66 -67 -68 0
-65 -67 -68 0
-65 -66 -68 0
-65 -66 -67 0
-70 -71 -72 0
-69 -71 -72 0
-69 -70 -72 0
-69 -70 -71 0
-74 -75 -76 0
-73 -75 -76 0
-73 -74 -76 0
-73 -74 -75 0
-78 -79 -80 0
-77 -79 -80 0
-77 -78 -80 0
-77 -78 -79 0
-82 -83 -84 0
-81 -83 -84 0
-81 -82 -84 0
-81 -82 -83 0
-86 -87 -88 0
-85 -87 -88 0
-85 -86 -88 0
-85 -86 -87 0
-90 -91 -92 0
-89 -91 -92 0
-89 -90 -92 0
-89 -90 -91 0
-94 -95 -96 0
-93 -95 -96 0
-93 -94 -96 0
-93 -94 -95 0
-98 -99 -100 0
-97 -99 -100 0
-97 -98 -100 0
-97 -98 -99 0
-102 -103 -104 0
-101 -103 -104 0
-101 -102 -104 0
-101 -102 -103 0
-106 -107 -108 0
-105 -107 -108 0
-105 -106 -108 0
-105 -106 -107 0
-110 -111 -112 0
-109 -111 -112 0
-109 -110 -112 0
-109 -110 -111 0
-114 -115 -116 0
-113 -115 -116 0
-113 -114 -116 0
-113 -114 -115 0
-118 -119 -120 0
-117 -119 -120 0
-117 -118 -120 0
-117 -118 -119 0
-122 -123 -124 0
-121 -123 -124 0
-121 -122 -124 0
-121 -122 -123 0
-125 -126 -127 0
-125 -126 -128 0
-125 -126 -129 0
-125 -127 -128 0
-125 -127 -129 0
-125 -128 -129 0
-126 -127 -128 0
-126 -127 -129 0
-126 -128 -129 0
-127 -128 -129 0
87 102 19 0
96 102 19 0
96 87 19 0
96 87 102 0
93 16 80 0
110 16 80 0
110 93 80 0
110 93 16 0
104 97 111 0
76 97 111 0
76 104 111 0
76 104 97 0
63 40 77 0
129 40 77 0
129 63 77 0
129 63 40 0
81 7 18 0
61 7 18 0
61 81 18 0
61 81 7 0
79 88 84 0
56 88 84 0
56 79 84 0
56 79 88 0
13 30 38 0
114 30 38 0
114 13 38 0
114 13 30 0
24 46 123 0
9 46 123 0
9 24 123 0
9 24 46 0
21 128 59 0
50 128 59 0
50 21 59 0
50 21 128 0
83 47 103 0
68 47 103 0
68 83 103 0
68 83 47 0
74 52 115 0
117 52 115 0
117 74 115 0
117 74 52 0
35 67 106 0
14 67 106 0
14 35 106 0
14 35 67 0
75 27 57 0
66 27 57 0
66 75 57 0
66 75 27 0
122 71 53 0
90 71 53 0
90 122 53 0
90 122 71 0
49 5 3 0
85 5 3 0
85 49 3 0
85 49 5 0
42 101 105 0
29 101 105 0
29 42 105 0
29 42 101 0
98 37 17 0
124 37 17 0
124 98 17 0
124 98 37 0
22 78 118 0
92 78 118 0
92 22 118 0
92 22 78 0
127 112 8 0
54 112 8 0
54 127 8 0
54 127 112 0
39 23 107 0
25 23 107 0
25 39 107 0
25 39 23 0
82 34 91 0
43 34 91 0
43 82 91 0
43 82 34 0
64 36 70 0
119 36 70 0
119 64 70 0
119 64 36 0
20 15 69 0
51 15 69 0
51 20 69 0
51 20 15 0
65 11 116 0
86 11 116 0
86 65 116 0
86 65 11 0
109 89 48 0
26 89 48 0
26 109 48 0
26 109 89 0
31 73 94 0
2 73 94 0
2 31 94 0
2 31 73 0
45 58 32 0
6 58 32 0
6 45 32 0
6 45 58 0
55 120 100 0
1 120 100 0
1 55 100 0
1 55 120 0
28 62 41 0
12 62 41 0
12 28 41 0
12 28 62 0
121 4 33 0
125 4 33 0
125 121 33 0
125 121 4 0
108 126 10 0
99 126 10 0
99 108 10 0
99 108 126 0
60 113 44 0
60 113 95 0
60 113 72 0
60 44 95 0
60 44 72 0
60 95 72 0
113 44 95 0
113 44 72 0
113 95 72 0
44 95 72 0
